c nIsolatedPIs 10
c maxPI 20
p cnf 322 907
c gate 21 2 17 0
2 -21 0
17 -21 0
-2 -17 21 0
c gate 22 1 18 0
1 -22 0
18 -22 0
-1 -18 22 0
c gate 23 21 22 0
21 -23 0
22 -23 0
-21 -22 23 0
c gate 24 1 19 0
1 -24 0
19 -24 0
-1 -19 24 0
c gate 25 2 18 0
2 -25 0
18 -25 0
-2 -18 25 0
c gate 26 3 17 0
3 -26 0
17 -26 0
-3 -17 26 0
c gate 27 -25 -26 0
-25 -27 0
-26 -27 0
25 26 27 0
c gate 28 25 26 0
25 -28 0
26 -28 0
-25 -26 28 0
c gate 29 -27 -28 0
-27 -29 0
-28 -29 0
27 28 29 0
c gate 30 -24 -29 0
-24 -30 0
-29 -30 0
24 29 30 0
c gate 31 24 29 0
24 -31 0
29 -31 0
-24 -29 31 0
c gate 32 -30 -31 0
-30 -32 0
-31 -32 0
30 31 32 0
c gate 33 4 15 0
4 -33 0
15 -33 0
-4 -15 33 0
c gate 34 5 14 0
5 -34 0
14 -34 0
-5 -14 34 0
c gate 35 33 34 0
33 -35 0
34 -35 0
-33 -34 35 0
c gate 36 3 16 0
3 -36 0
16 -36 0
-3 -16 36 0
c gate 37 -33 -34 0
-33 -37 0
-34 -37 0
33 34 37 0
c gate 38 -35 -37 0
-35 -38 0
-37 -38 0
35 37 38 0
c gate 39 36 38 0
36 -39 0
38 -39 0
-36 -38 39 0
c gate 40 -35 -39 0
-35 -40 0
-39 -40 0
35 39 40 0
c gate 41 32 -40 0
32 -41 0
-40 -41 0
-32 40 41 0
c gate 42 -32 40 0
-32 -42 0
40 -42 0
32 -40 42 0
c gate 43 -41 -42 0
-41 -43 0
-42 -43 0
41 42 43 0
c gate 44 -23 -43 0
-23 -44 0
-43 -44 0
23 43 44 0
c gate 45 23 43 0
23 -45 0
43 -45 0
-23 -43 45 0
c gate 46 -44 -45 0
-44 -46 0
-45 -46 0
44 45 46 0
c gate 47 4 16 0
4 -47 0
16 -47 0
-4 -16 47 0
c gate 48 5 15 0
5 -48 0
15 -48 0
-5 -15 48 0
c gate 49 6 14 0
6 -49 0
14 -49 0
-6 -14 49 0
c gate 50 -48 -49 0
-48 -50 0
-49 -50 0
48 49 50 0
c gate 51 48 49 0
48 -51 0
49 -51 0
-48 -49 51 0
c gate 52 -50 -51 0
-50 -52 0
-51 -52 0
50 51 52 0
c gate 53 -47 -52 0
-47 -53 0
-52 -53 0
47 52 53 0
c gate 54 47 52 0
47 -54 0
52 -54 0
-47 -52 54 0
c gate 55 -53 -54 0
-53 -55 0
-54 -55 0
53 54 55 0
c gate 56 7 13 0
7 -56 0
13 -56 0
-7 -13 56 0
c gate 57 8 12 0
8 -57 0
12 -57 0
-8 -12 57 0
c gate 58 9 11 0
9 -58 0
11 -58 0
-9 -11 58 0
c gate 59 -57 -58 0
-57 -59 0
-58 -59 0
57 58 59 0
c gate 60 57 58 0
57 -60 0
58 -60 0
-57 -58 60 0
c gate 61 -59 -60 0
-59 -61 0
-60 -61 0
59 60 61 0
c gate 62 -56 -61 0
-56 -62 0
-61 -62 0
56 61 62 0
c gate 63 56 61 0
56 -63 0
61 -63 0
-56 -61 63 0
c gate 64 -62 -63 0
-62 -64 0
-63 -64 0
62 63 64 0
c gate 65 8 11 0
8 -65 0
11 -65 0
-8 -11 65 0
c gate 66 7 12 0
7 -66 0
12 -66 0
-7 -12 66 0
c gate 67 -65 -66 0
-65 -67 0
-66 -67 0
65 66 67 0
c gate 68 65 66 0
65 -68 0
66 -68 0
-65 -66 68 0
c gate 69 -67 -68 0
-67 -69 0
-68 -69 0
67 68 69 0
c gate 70 6 13 0
6 -70 0
13 -70 0
-6 -13 70 0
c gate 71 69 -70 0
69 -71 0
-70 -71 0
-69 70 71 0
c gate 72 -67 -71 0
-67 -72 0
-71 -72 0
67 71 72 0
c gate 73 64 72 0
64 -73 0
72 -73 0
-64 -72 73 0
c gate 74 -64 -72 0
-64 -74 0
-72 -74 0
64 72 74 0
c gate 75 -73 -74 0
-73 -75 0
-74 -75 0
73 74 75 0
c gate 76 -55 -75 0
-55 -76 0
-75 -76 0
55 75 76 0
c gate 77 55 75 0
55 -77 0
75 -77 0
-55 -75 77 0
c gate 78 -76 -77 0
-76 -78 0
-77 -78 0
76 77 78 0
c gate 79 6 12 0
6 -79 0
12 -79 0
-6 -12 79 0
c gate 80 7 11 0
7 -80 0
11 -80 0
-7 -11 80 0
c gate 81 79 80 0
79 -81 0
80 -81 0
-79 -80 81 0
c gate 82 5 13 0
5 -82 0
13 -82 0
-5 -13 82 0
c gate 83 -79 -80 0
-79 -83 0
-80 -83 0
79 80 83 0
c gate 84 -81 -83 0
-81 -84 0
-83 -84 0
81 83 84 0
c gate 85 82 84 0
82 -85 0
84 -85 0
-82 -84 85 0
c gate 86 -81 -85 0
-81 -86 0
-85 -86 0
81 85 86 0
c gate 87 -69 70 0
-69 -87 0
70 -87 0
69 -70 87 0
c gate 88 -71 -87 0
-71 -88 0
-87 -88 0
71 87 88 0
c gate 89 86 88 0
86 -89 0
88 -89 0
-86 -88 89 0
c gate 90 -86 -88 0
-86 -90 0
-88 -90 0
86 88 90 0
c gate 91 -89 -90 0
-89 -91 0
-90 -91 0
89 90 91 0
c gate 92 -36 -38 0
-36 -92 0
-38 -92 0
36 38 92 0
c gate 93 -39 -92 0
-39 -93 0
-92 -93 0
39 92 93 0
c gate 94 91 -93 0
91 -94 0
-93 -94 0
-91 93 94 0
c gate 95 -89 -94 0
-89 -95 0
-94 -95 0
89 94 95 0
c gate 96 78 95 0
78 -96 0
95 -96 0
-78 -95 96 0
c gate 97 -78 -95 0
-78 -97 0
-95 -97 0
78 95 97 0
c gate 98 -96 -97 0
-96 -98 0
-97 -98 0
96 97 98 0
c gate 99 -46 -98 0
-46 -99 0
-98 -99 0
46 98 99 0
c gate 100 46 98 0
46 -100 0
98 -100 0
-46 -98 100 0
c gate 101 -99 -100 0
-99 -101 0
-100 -101 0
99 100 101 0
c gate 102 5 12 0
5 -102 0
12 -102 0
-5 -12 102 0
c gate 103 6 11 0
6 -103 0
11 -103 0
-6 -11 103 0
c gate 104 102 103 0
102 -104 0
103 -104 0
-102 -103 104 0
c gate 105 4 13 0
4 -105 0
13 -105 0
-4 -13 105 0
c gate 106 -102 -103 0
-102 -106 0
-103 -106 0
102 103 106 0
c gate 107 -104 -106 0
-104 -107 0
-106 -107 0
104 106 107 0
c gate 108 105 107 0
105 -108 0
107 -108 0
-105 -107 108 0
c gate 109 -104 -108 0
-104 -109 0
-108 -109 0
104 108 109 0
c gate 110 -82 -84 0
-82 -110 0
-84 -110 0
82 84 110 0
c gate 111 -85 -110 0
-85 -111 0
-110 -111 0
85 110 111 0
c gate 112 -109 111 0
-109 -112 0
111 -112 0
109 -111 112 0
c gate 113 2 16 0
2 -113 0
16 -113 0
-2 -16 113 0
c gate 114 3 15 0
3 -114 0
15 -114 0
-3 -15 114 0
c gate 115 4 14 0
4 -115 0
14 -115 0
-4 -14 115 0
c gate 116 -114 -115 0
-114 -116 0
-115 -116 0
114 115 116 0
c gate 117 114 115 0
114 -117 0
115 -117 0
-114 -115 117 0
c gate 118 -116 -117 0
-116 -118 0
-117 -118 0
116 117 118 0
c gate 119 113 118 0
113 -119 0
118 -119 0
-113 -118 119 0
c gate 120 -113 -118 0
-113 -120 0
-118 -120 0
113 118 120 0
c gate 121 -119 -120 0
-119 -121 0
-120 -121 0
119 120 121 0
c gate 122 109 -111 0
109 -122 0
-111 -122 0
-109 111 122 0
c gate 123 -112 -122 0
-112 -123 0
-122 -123 0
112 122 123 0
c gate 124 121 123 0
121 -124 0
123 -124 0
-121 -123 124 0
c gate 125 -112 -124 0
-112 -125 0
-124 -125 0
112 124 125 0
c gate 126 -91 93 0
-91 -126 0
93 -126 0
91 -93 126 0
c gate 127 -94 -126 0
-94 -127 0
-126 -127 0
94 126 127 0
c gate 128 125 127 0
125 -128 0
127 -128 0
-125 -127 128 0
c gate 129 -125 -127 0
-125 -129 0
-127 -129 0
125 127 129 0
c gate 130 -128 -129 0
-128 -130 0
-129 -130 0
128 129 130 0
c gate 131 -21 -22 0
-21 -131 0
-22 -131 0
21 22 131 0
c gate 132 -23 -131 0
-23 -132 0
-131 -132 0
23 131 132 0
c gate 133 -117 -119 0
-117 -133 0
-119 -133 0
117 119 133 0
c gate 134 -132 133 0
-132 -134 0
133 -134 0
132 -133 134 0
c gate 135 132 -133 0
132 -135 0
-133 -135 0
-132 133 135 0
c gate 136 -134 -135 0
-134 -136 0
-135 -136 0
134 135 136 0
c gate 137 130 -136 0
130 -137 0
-136 -137 0
-130 136 137 0
c gate 138 -128 -137 0
-128 -138 0
-137 -138 0
128 137 138 0
c gate 139 101 138 0
101 -139 0
138 -139 0
-101 -138 139 0
c gate 140 -101 -138 0
-101 -140 0
-138 -140 0
101 138 140 0
c gate 141 -139 -140 0
-139 -141 0
-140 -141 0
139 140 141 0
c gate 142 135 141 0
135 -142 0
141 -142 0
-135 -141 142 0
c gate 143 -139 -142 0
-139 -143 0
-142 -143 0
139 142 143 0
c gate 144 1 20 0
1 -144 0
20 -144 0
-1 -20 144 0
c gate 145 -41 -45 0
-41 -145 0
-45 -145 0
41 45 145 0
c gate 146 144 -145 0
144 -146 0
-145 -146 0
-144 145 146 0
c gate 147 -144 145 0
-144 -147 0
145 -147 0
144 -145 147 0
c gate 148 -146 -147 0
-146 -148 0
-147 -148 0
146 147 148 0
c gate 149 -96 -100 0
-96 -149 0
-100 -149 0
96 100 149 0
c gate 150 -28 -31 0
-28 -150 0
-31 -150 0
28 31 150 0
c gate 151 2 19 0
2 -151 0
19 -151 0
-2 -19 151 0
c gate 152 3 18 0
3 -152 0
18 -152 0
-3 -18 152 0
c gate 153 4 17 0
4 -153 0
17 -153 0
-4 -17 153 0
c gate 154 -152 -153 0
-152 -154 0
-153 -154 0
152 153 154 0
c gate 155 152 153 0
152 -155 0
153 -155 0
-152 -153 155 0
c gate 156 -154 -155 0
-154 -156 0
-155 -156 0
154 155 156 0
c gate 157 -151 -156 0
-151 -157 0
-156 -157 0
151 156 157 0
c gate 158 151 156 0
151 -158 0
156 -158 0
-151 -156 158 0
c gate 159 -157 -158 0
-157 -159 0
-158 -159 0
157 158 159 0
c gate 160 -51 -54 0
-51 -160 0
-54 -160 0
51 54 160 0
c gate 161 159 -160 0
159 -161 0
-160 -161 0
-159 160 161 0
c gate 162 -159 160 0
-159 -162 0
160 -162 0
159 -160 162 0
c gate 163 -161 -162 0
-161 -163 0
-162 -163 0
161 162 163 0
c gate 164 150 -163 0
150 -164 0
-163 -164 0
-150 163 164 0
c gate 165 -150 163 0
-150 -165 0
163 -165 0
150 -163 165 0
c gate 166 -164 -165 0
-164 -166 0
-165 -166 0
164 165 166 0
c gate 167 -73 -77 0
-73 -167 0
-77 -167 0
73 77 167 0
c gate 168 5 16 0
5 -168 0
16 -168 0
-5 -16 168 0
c gate 169 6 15 0
6 -169 0
15 -169 0
-6 -15 169 0
c gate 170 7 14 0
7 -170 0
14 -170 0
-7 -14 170 0
c gate 171 -169 -170 0
-169 -171 0
-170 -171 0
169 170 171 0
c gate 172 169 170 0
169 -172 0
170 -172 0
-169 -170 172 0
c gate 173 -171 -172 0
-171 -173 0
-172 -173 0
171 172 173 0
c gate 174 -168 -173 0
-168 -174 0
-173 -174 0
168 173 174 0
c gate 175 168 173 0
168 -175 0
173 -175 0
-168 -173 175 0
c gate 176 -174 -175 0
-174 -176 0
-175 -176 0
174 175 176 0
c gate 177 -60 -63 0
-60 -177 0
-63 -177 0
60 63 177 0
c gate 178 8 13 0
8 -178 0
13 -178 0
-8 -13 178 0
c gate 179 9 12 0
9 -179 0
12 -179 0
-9 -12 179 0
c gate 180 10 11 0
10 -180 0
11 -180 0
-10 -11 180 0
c gate 181 -179 -180 0
-179 -181 0
-180 -181 0
179 180 181 0
c gate 182 179 180 0
179 -182 0
180 -182 0
-179 -180 182 0
c gate 183 -181 -182 0
-181 -183 0
-182 -183 0
181 182 183 0
c gate 184 -178 -183 0
-178 -184 0
-183 -184 0
178 183 184 0
c gate 185 178 183 0
178 -185 0
183 -185 0
-178 -183 185 0
c gate 186 -184 -185 0
-184 -186 0
-185 -186 0
184 185 186 0
c gate 187 -177 186 0
-177 -187 0
186 -187 0
177 -186 187 0
c gate 188 177 -186 0
177 -188 0
-186 -188 0
-177 186 188 0
c gate 189 -187 -188 0
-187 -189 0
-188 -189 0
187 188 189 0
c gate 190 -176 -189 0
-176 -190 0
-189 -190 0
176 189 190 0
c gate 191 176 189 0
176 -191 0
189 -191 0
-176 -189 191 0
c gate 192 -190 -191 0
-190 -192 0
-191 -192 0
190 191 192 0
c gate 193 -167 192 0
-167 -193 0
192 -193 0
167 -192 193 0
c gate 194 167 -192 0
167 -194 0
-192 -194 0
-167 192 194 0
c gate 195 -193 -194 0
-193 -195 0
-194 -195 0
193 194 195 0
c gate 196 -166 -195 0
-166 -196 0
-195 -196 0
166 195 196 0
c gate 197 166 195 0
166 -197 0
195 -197 0
-166 -195 197 0
c gate 198 -196 -197 0
-196 -198 0
-197 -198 0
196 197 198 0
c gate 199 -149 198 0
-149 -199 0
198 -199 0
149 -198 199 0
c gate 200 149 -198 0
149 -200 0
-198 -200 0
-149 198 200 0
c gate 201 -199 -200 0
-199 -201 0
-200 -201 0
199 200 201 0
c gate 202 -148 -201 0
-148 -202 0
-201 -202 0
148 201 202 0
c gate 203 148 201 0
148 -203 0
201 -203 0
-148 -201 203 0
c gate 204 -202 -203 0
-202 -204 0
-203 -204 0
202 203 204 0
c gate 205 143 -204 0
143 -205 0
-204 -205 0
-143 204 205 0
c gate 206 -143 204 0
-143 -206 0
204 -206 0
143 -204 206 0
c gate 207 -205 -206 0
-205 -207 0
-206 -207 0
205 206 207 0
c gate 208 4 12 0
4 -208 0
12 -208 0
-4 -12 208 0
c gate 209 5 11 0
5 -209 0
11 -209 0
-5 -11 209 0
c gate 210 208 209 0
208 -210 0
209 -210 0
-208 -209 210 0
c gate 211 3 13 0
3 -211 0
13 -211 0
-3 -13 211 0
c gate 212 -208 -209 0
-208 -212 0
-209 -212 0
208 209 212 0
c gate 213 -210 -212 0
-210 -213 0
-212 -213 0
210 212 213 0
c gate 214 211 213 0
211 -214 0
213 -214 0
-211 -213 214 0
c gate 215 -210 -214 0
-210 -215 0
-214 -215 0
210 214 215 0
c gate 216 -105 -107 0
-105 -216 0
-107 -216 0
105 107 216 0
c gate 217 -108 -216 0
-108 -217 0
-216 -217 0
108 216 217 0
c gate 218 -215 217 0
-215 -218 0
217 -218 0
215 -217 218 0
c gate 219 1 16 0
1 -219 0
16 -219 0
-1 -16 219 0
c gate 220 2 15 0
2 -220 0
15 -220 0
-2 -15 220 0
c gate 221 3 14 0
3 -221 0
14 -221 0
-3 -14 221 0
c gate 222 -220 -221 0
-220 -222 0
-221 -222 0
220 221 222 0
c gate 223 220 221 0
220 -223 0
221 -223 0
-220 -221 223 0
c gate 224 -222 -223 0
-222 -224 0
-223 -224 0
222 223 224 0
c gate 225 219 224 0
219 -225 0
224 -225 0
-219 -224 225 0
c gate 226 -219 -224 0
-219 -226 0
-224 -226 0
219 224 226 0
c gate 227 -225 -226 0
-225 -227 0
-226 -227 0
225 226 227 0
c gate 228 215 -217 0
215 -228 0
-217 -228 0
-215 217 228 0
c gate 229 -218 -228 0
-218 -229 0
-228 -229 0
218 228 229 0
c gate 230 227 229 0
227 -230 0
229 -230 0
-227 -229 230 0
c gate 231 -218 -230 0
-218 -231 0
-230 -231 0
218 230 231 0
c gate 232 -121 -123 0
-121 -232 0
-123 -232 0
121 123 232 0
c gate 233 -124 -232 0
-124 -233 0
-232 -233 0
124 232 233 0
c gate 234 -231 233 0
-231 -234 0
233 -234 0
231 -233 234 0
c gate 235 1 17 0
1 -235 0
17 -235 0
-1 -17 235 0
c gate 236 -223 -225 0
-223 -236 0
-225 -236 0
223 225 236 0
c gate 237 235 -236 0
235 -237 0
-236 -237 0
-235 236 237 0
c gate 238 -235 236 0
-235 -238 0
236 -238 0
235 -236 238 0
c gate 239 -237 -238 0
-237 -239 0
-238 -239 0
237 238 239 0
c gate 240 231 -233 0
231 -240 0
-233 -240 0
-231 233 240 0
c gate 241 -234 -240 0
-234 -241 0
-240 -241 0
234 240 241 0
c gate 242 239 241 0
239 -242 0
241 -242 0
-239 -241 242 0
c gate 243 -234 -242 0
-234 -243 0
-242 -243 0
234 242 243 0
c gate 244 -130 136 0
-130 -244 0
136 -244 0
130 -136 244 0
c gate 245 -137 -244 0
-137 -245 0
-244 -245 0
137 244 245 0
c gate 246 -243 -245 0
-243 -246 0
-245 -246 0
243 245 246 0
c gate 247 243 245 0
243 -247 0
245 -247 0
-243 -245 247 0
c gate 248 -246 -247 0
-246 -248 0
-247 -248 0
246 247 248 0
c gate 249 237 248 0
237 -249 0
248 -249 0
-237 -248 249 0
c gate 250 -246 -249 0
-246 -250 0
-249 -250 0
246 249 250 0
c gate 251 -135 -141 0
-135 -251 0
-141 -251 0
135 141 251 0
c gate 252 -142 -251 0
-142 -252 0
-251 -252 0
142 251 252 0
c gate 253 -250 252 0
-250 -253 0
252 -253 0
250 -252 253 0
c gate 254 3 12 0
3 -254 0
12 -254 0
-3 -12 254 0
c gate 255 4 11 0
4 -255 0
11 -255 0
-4 -11 255 0
c gate 256 254 255 0
254 -256 0
255 -256 0
-254 -255 256 0
c gate 257 2 13 0
2 -257 0
13 -257 0
-2 -13 257 0
c gate 258 -254 -255 0
-254 -258 0
-255 -258 0
254 255 258 0
c gate 259 -256 -258 0
-256 -259 0
-258 -259 0
256 258 259 0
c gate 260 257 259 0
257 -260 0
259 -260 0
-257 -259 260 0
c gate 261 -256 -260 0
-256 -261 0
-260 -261 0
256 260 261 0
c gate 262 -211 -213 0
-211 -262 0
-213 -262 0
211 213 262 0
c gate 263 -214 -262 0
-214 -263 0
-262 -263 0
214 262 263 0
c gate 264 -261 263 0
-261 -264 0
263 -264 0
261 -263 264 0
c gate 265 1 15 0
1 -265 0
15 -265 0
-1 -15 265 0
c gate 266 2 14 0
2 -266 0
14 -266 0
-2 -14 266 0
c gate 267 265 266 0
265 -267 0
266 -267 0
-265 -266 267 0
c gate 268 -265 -266 0
-265 -268 0
-266 -268 0
265 266 268 0
c gate 269 -267 -268 0
-267 -269 0
-268 -269 0
267 268 269 0
c gate 270 261 -263 0
261 -270 0
-263 -270 0
-261 263 270 0
c gate 271 -264 -270 0
-264 -271 0
-270 -271 0
264 270 271 0
c gate 272 269 271 0
269 -272 0
271 -272 0
-269 -271 272 0
c gate 273 -264 -272 0
-264 -273 0
-272 -273 0
264 272 273 0
c gate 274 -227 -229 0
-227 -274 0
-229 -274 0
227 229 274 0
c gate 275 -230 -274 0
-230 -275 0
-274 -275 0
230 274 275 0
c gate 276 -273 275 0
-273 -276 0
275 -276 0
273 -275 276 0
c gate 277 273 -275 0
273 -277 0
-275 -277 0
-273 275 277 0
c gate 278 -276 -277 0
-276 -278 0
-277 -278 0
276 277 278 0
c gate 279 267 278 0
267 -279 0
278 -279 0
-267 -278 279 0
c gate 280 -276 -279 0
-276 -280 0
-279 -280 0
276 279 280 0
c gate 281 -239 -241 0
-239 -281 0
-241 -281 0
239 241 281 0
c gate 282 -242 -281 0
-242 -282 0
-281 -282 0
242 281 282 0
c gate 283 -280 282 0
-280 -283 0
282 -283 0
280 -282 283 0
c gate 284 -237 -248 0
-237 -284 0
-248 -284 0
237 248 284 0
c gate 285 -249 -284 0
-249 -285 0
-284 -285 0
249 284 285 0
c gate 286 283 285 0
283 -286 0
285 -286 0
-283 -285 286 0
c gate 287 250 -252 0
250 -287 0
-252 -287 0
-250 252 287 0
c gate 288 -253 -287 0
-253 -288 0
-287 -288 0
253 287 288 0
c gate 289 286 288 0
286 -289 0
288 -289 0
-286 -288 289 0
c gate 290 -253 -289 0
-253 -290 0
-289 -290 0
253 289 290 0
c gate 291 207 290 0
207 -291 0
290 -291 0
-207 -290 291 0
c gate 292 -207 -290 0
-207 -292 0
-290 -292 0
207 290 292 0
c gate 293 -291 -292 0
-291 -293 0
-292 -293 0
291 292 293 0
c gate 294 280 -282 0
280 -294 0
-282 -294 0
-280 282 294 0
c gate 295 -283 -294 0
-283 -295 0
-294 -295 0
283 294 295 0
c gate 296 -267 -278 0
-267 -296 0
-278 -296 0
267 278 296 0
c gate 297 -279 -296 0
-279 -297 0
-296 -297 0
279 296 297 0
c gate 298 -257 -259 0
-257 -298 0
-259 -298 0
257 259 298 0
c gate 299 -260 -298 0
-260 -299 0
-298 -299 0
260 298 299 0
c gate 300 3 11 0
3 -300 0
11 -300 0
-3 -11 300 0
c gate 301 2 12 0
2 -301 0
12 -301 0
-2 -12 301 0
c gate 302 300 301 0
300 -302 0
301 -302 0
-300 -301 302 0
c gate 303 -300 -301 0
-300 -303 0
-301 -303 0
300 301 303 0
c gate 304 1 13 0
1 -304 0
13 -304 0
-1 -13 304 0
c gate 305 -303 304 0
-303 -305 0
304 -305 0
303 -304 305 0
c gate 306 -302 -305 0
-302 -306 0
-305 -306 0
302 305 306 0
c gate 307 299 -306 0
299 -307 0
-306 -307 0
-299 306 307 0
c gate 308 1 14 0
1 -308 0
14 -308 0
-1 -14 308 0
c gate 309 -299 306 0
-299 -309 0
306 -309 0
299 -306 309 0
c gate 310 -307 -309 0
-307 -310 0
-309 -310 0
307 309 310 0
c gate 311 308 310 0
308 -311 0
310 -311 0
-308 -310 311 0
c gate 312 -307 -311 0
-307 -312 0
-311 -312 0
307 311 312 0
c gate 313 -269 -271 0
-269 -313 0
-271 -313 0
269 271 313 0
c gate 314 -272 -313 0
-272 -314 0
-313 -314 0
272 313 314 0
c gate 315 -312 314 0
-312 -315 0
314 -315 0
312 -314 315 0
c gate 316 297 315 0
297 -316 0
315 -316 0
-297 -315 316 0
c gate 317 295 316 0
295 -317 0
316 -317 0
-295 -316 317 0
c gate 318 285 317 0
285 -318 0
317 -318 0
-285 -317 318 0
c gate 319 -286 -288 0
-286 -319 0
-288 -319 0
286 288 319 0
c gate 320 -289 -319 0
-289 -320 0
-319 -320 0
289 319 320 0
c gate 321 318 320 0
318 -321 0
320 -321 0
-318 -320 321 0
c gate 322 -293 321 0
-293 -322 0
321 -322 0
293 -321 322 0
c PO
322 0
